12° run output:
{
    "Function": "euclidA300.tsp",
    "Problem dimension": [
        106,
        180,
        96,
        109,
        92,
        45,
        137,
        284,
        248,
        151,
        152,
        271,
        120,
        3,
        267,
        230,
        231,
        13,
        127,
        186,
        155,
        40,
        291,
        110,
        126,
        204,
        21,
        79,
        74,
        158,
        38,
        294,
        153,
        174,
        236,
        240,
        33,
        179,
        94,
        265,
        166,
        228,
        35,
        285,
        71,
        150,
        86,
        32,
        226,
        224,
        60,
        287,
        83,
        50,
        253,
        176,
        4,
        173,
        81,
        145,
        29,
        30,
        222,
        207,
        188,
        250,
        212,
        143,
        268,
        18,
        200,
        273,
        225,
        72,
        112,
        129,
        295,
        113,
        28,
        75,
        234,
        89,
        278,
        159,
        171,
        235,
        85,
        97,
        218,
        133,
        80,
        90,
        237,
        239,
        289,
        283,
        136,
        275,
        46,
        57,
        70,
        195,
        102,
        288,
        54,
        220,
        135,
        194,
        299,
        196,
        47,
        25,
        95,
        256,
        8,
        160,
        221,
        187,
        197,
        53,
        191,
        119,
        101,
        23,
        277,
        161,
        142,
        56,
        184,
        66,
        190,
        254,
        168,
        16,
        134,
        91,
        34,
        258,
        19,
        269,
        124,
        26,
        210,
        62,
        2,
        15,
        10,
        233,
        107,
        78,
        252,
        274,
        247,
        298,
        214,
        246,
        259,
        178,
        199,
        260,
        131,
        232,
        105,
        144,
        257,
        189,
        130,
        177,
        73,
        146,
        193,
        43,
        99,
        183,
        229,
        139,
        169,
        116,
        5,
        276,
        147,
        286,
        255,
        1,
        167,
        52,
        61,
        292,
        22,
        82,
        245,
        31,
        39,
        206,
        88,
        59,
        55,
        24,
        37,
        164,
        209,
        93,
        42,
        0,
        280,
        201,
        84,
        128,
        211,
        198,
        149,
        293,
        11,
        9,
        249,
        244,
        148,
        121,
        219,
        251,
        76,
        279,
        205,
        6,
        64,
        272,
        140,
        261,
        108,
        17,
        67,
        36,
        115,
        125,
        297,
        181,
        208,
        202,
        227,
        185,
        69,
        104,
        132,
        117,
        111,
        203,
        138,
        98,
        123,
        290,
        156,
        182,
        154,
        27,
        20,
        243,
        51,
        263,
        100,
        238,
        87,
        14,
        213,
        48,
        242,
        270,
        114,
        262,
        241,
        215,
        77,
        216,
        170,
        157,
        162,
        266,
        122,
        118,
        103,
        172,
        163,
        175,
        264,
        49,
        141,
        296,
        282,
        192,
        65,
        281,
        217,
        41,
        12,
        44,
        63,
        7,
        223,
        68,
        165,
        58
    ],
    "Global Optimum": 0,
    "Algorithm": "Genetic algorithm",
    "Parameters": {
        "population": 30,
        "offspring": 30,
        "mutation probability": 0.0033333333333333335,
        "crossover probability": 0.9
    },
    "Fitness": 312999,
    "Solution": [
        106,
        180,
        96,
        109,
        92,
        45,
        137,
        284,
        248,
        151,
        152,
        271,
        120,
        3,
        267,
        230,
        231,
        13,
        127,
        186,
        155,
        40,
        291,
        110,
        126,
        204,
        21,
        79,
        74,
        158,
        38,
        294,
        153,
        174,
        236,
        240,
        33,
        179,
        94,
        265,
        166,
        228,
        35,
        285,
        71,
        150,
        86,
        32,
        226,
        224,
        60,
        287,
        83,
        50,
        253,
        176,
        4,
        173,
        81,
        145,
        29,
        30,
        222,
        207,
        188,
        250,
        212,
        143,
        268,
        18,
        200,
        273,
        225,
        72,
        112,
        129,
        295,
        113,
        28,
        75,
        234,
        89,
        278,
        159,
        171,
        235,
        85,
        97,
        218,
        133,
        80,
        90,
        237,
        239,
        289,
        283,
        136,
        275,
        46,
        57,
        70,
        195,
        102,
        288,
        54,
        220,
        135,
        194,
        299,
        196,
        47,
        25,
        95,
        256,
        8,
        160,
        221,
        187,
        197,
        53,
        191,
        119,
        101,
        23,
        277,
        161,
        142,
        56,
        184,
        66,
        190,
        254,
        168,
        16,
        134,
        91,
        34,
        258,
        19,
        269,
        124,
        26,
        210,
        62,
        2,
        15,
        10,
        233,
        107,
        78,
        252,
        274,
        247,
        298,
        214,
        246,
        259,
        178,
        199,
        260,
        131,
        232,
        105,
        144,
        257,
        189,
        130,
        177,
        73,
        146,
        193,
        43,
        99,
        183,
        229,
        139,
        169,
        116,
        5,
        276,
        147,
        286,
        255,
        1,
        167,
        52,
        61,
        292,
        22,
        82,
        245,
        31,
        39,
        206,
        88,
        59,
        55,
        24,
        37,
        164,
        209,
        93,
        42,
        0,
        280,
        201,
        84,
        128,
        211,
        198,
        149,
        293,
        11,
        9,
        249,
        244,
        148,
        121,
        219,
        251,
        76,
        279,
        205,
        6,
        64,
        272,
        140,
        261,
        108,
        17,
        67,
        36,
        115,
        125,
        297,
        181,
        208,
        202,
        227,
        185,
        69,
        104,
        132,
        117,
        111,
        203,
        138,
        98,
        123,
        290,
        156,
        182,
        154,
        27,
        20,
        243,
        51,
        263,
        100,
        238,
        87,
        14,
        213,
        48,
        242,
        270,
        114,
        262,
        241,
        215,
        77,
        216,
        170,
        157,
        162,
        266,
        122,
        118,
        103,
        172,
        163,
        175,
        264,
        49,
        141,
        296,
        282,
        192,
        65,
        281,
        217,
        41,
        12,
        44,
        63,
        7,
        223,
        68,
        165,
        58
    ],
    "Nb of functions evaluations": 200010,
    "Computational time in seconds": 389.0082528591156,
    "Stopping criterion in evaluations": 200000
}